NAME: n90q15H.tsp, 90 nodes, semilla 777
COMMENT: Problema aleatorio de norma euclidea
DIMENSION: 90
CAPACITY: 15
EDGE_WEIGHT_TYPE: EUC_2D
NODE_COORD_SECTION
1   0.0000   0.0000
2 -108.0000  76.0000
3 372.0000 -432.0000
4 -57.0000 388.0000
5 286.0000 409.0000
6 424.0000 169.0000
7  58.0000 -497.0000
8 221.0000 118.0000
9 470.0000 380.0000
10 -431.0000 -422.0000
11 305.0000 -58.0000
12 457.0000 196.0000
13 493.0000 269.0000
14 281.0000 -259.0000
15 -172.0000 -484.0000
16 263.0000 -258.0000
17 -427.0000 153.0000
18 351.0000 314.0000
19 478.0000 120.0000
20 -415.0000 -203.0000
21  20.0000 -92.0000
22 113.0000 237.0000
23  57.0000 447.0000
24 -322.0000 -129.0000
25 253.0000 -27.0000
26 -387.0000 -243.0000
27 -72.0000 212.0000
28 246.0000 -337.0000
29  71.0000 279.0000
30 351.0000 -457.0000
31 253.0000 100.0000
32 -65.0000  26.0000
33 324.0000 -23.0000
34 -354.0000 -28.0000
35 332.0000 270.0000
36 276.0000 -117.0000
37 -389.0000 -49.0000
38 191.0000 -497.0000
39 189.0000 -47.0000
40 361.0000 -152.0000
41 -322.0000 -497.0000
42 -320.0000 248.0000
43 -50.0000 -235.0000
44 143.0000 -206.0000
45 -459.0000 365.0000
46 -370.0000 -388.0000
47 311.0000 264.0000
48 382.0000  49.0000
49 -463.0000 -424.0000
50 -408.0000 354.0000
51 109.0000  -5.0000
52 -410.0000 -226.0000
53 -286.0000 306.0000
54 162.0000 -185.0000
55 -248.0000 395.0000
56 477.0000 120.0000
57 466.0000 -460.0000
58 155.0000 243.0000
59 -324.0000 -359.0000
60 -283.0000 335.0000
61 -121.0000  87.0000
62 -194.0000 371.0000
63 275.0000 -94.0000
64 -349.0000 348.0000
65 -59.0000 -76.0000
66 -91.0000 -227.0000
67 -223.0000 399.0000
68 321.0000 -473.0000
69 162.0000 325.0000
70 -335.0000 -362.0000
71 295.0000 -114.0000
72 -316.0000 -313.0000
73 -488.0000   2.0000
74 252.0000 -289.0000
75 -30.0000 -153.0000
76 215.0000 422.0000
77 -226.0000 -107.0000
78 400.0000 -212.0000
79 -255.0000 120.0000
80 -458.0000 386.0000
81 368.0000 -346.0000
82  77.0000 156.0000
83 -438.0000 -70.0000
84 171.0000 357.0000
85 -38.0000 -216.0000
86 -130.0000 -21.0000
87 397.0000 -422.0000
88 -379.0000  13.0000
89 -111.0000 -302.0000
90 -212.0000 467.0000
DISPLAY_DATA_SECTION:
 1  250  250
 2  196  288
 3  436   34
 4  221  444
 5  393  454
 6  462  334
 7  279    1
 8  360  309
 9  485  440
10   34   39
11  402  221
12  478  348
13  496  384
14  390  120
15  164    8
16  381  121
17   36  326
18  425  407
19  489  310
20   42  148
21  260  204
22  306  368
23  278  473
24   89  185
25  376  236
26   56  128
27  214  356
28  373   81
29  285  389
30  425   21
31  376  300
32  217  263
33  412  238
34   73  236
35  416  385
36  388  191
37   55  225
38  345    1
39  344  226
40  430  174
41   89    1
42   90  374
43  225  132
44  321  147
45   20  432
46   65   56
47  405  382
48  441  274
49   18   38
50   46  427
51  304  247
52   45  137
53  107  403
54  331  157
55  126  447
56  488  310
57  483   20
58  327  371
59   88   70
60  108  417
61  189  293
62  153  435
63  387  203
64   75  424
65  220  212
66  204  136
67  138  449
68  410   13
69  331  412
70   82   69
71  397  193
72   92   93
73    6  251
74  376  105
75  235  173
76  357  461
77  137  196
78  450  144
79  122  310
80   21  443
81  434   77
82  288  328
83   31  215
84  335  428
85  231  142
86  185  239
87  448   39
88   60  256
89  194   99
90  144  483
DEMAND_SECTION
1 2
2 0
3 7
4 1
5 4
6 -1
7 7
8 -7
9 -4
10 -5
11 7
12 8
13 6
14 -4
15 8
16 2
17 9
18 8
19 -7
20 -6
21 -7
22 -10
23 -4
24 5
25 -2
26 -4
27 0
28 -7
29 6
30 -5
31 -10
32 0
33 -7
34 8
35 7
36 -4
37 2
38 -8
39 -10
40 -1
41 5
42 -10
43 -3
44 -10
45 6
46 0
47 9
48 7
49 3
50 3
51 4
52 -2
53 -4
54 -6
55 2
56 -7
57 7
58 1
59 -3
60 4
61 10
62 -4
63 -4
64 7
65 5
66 6
67 5
68 -9
69 -4
70 5
71 -2
72 1
73 9
74 -2
75 -8
76 4
77 3
78 1
79 1
80 1
81 -6
82 1
83 -4
84 -7
85 -2
86 -8
87 5
88 4
89 -4
90 6
EOF